c *********************************
c * Circuit generated by BenCGen
c *
c * CarrySaveMultiplier_8
c *
c * Ports with 1 gate(s): 2
c * Ports with 2 gate(s): 337
c * Total gates: 339
c *********************************
p cnf 355 1127
1 34 0
-1 -34 0
1 -33 0
34 -33 0
-1 -34 33 0
1 -35 0
9 -35 0
-1 -9 35 0
2 -36 0
9 -36 0
-2 -9 36 0
3 -37 0
9 -37 0
-3 -9 37 0
4 -38 0
9 -38 0
-4 -9 38 0
5 -39 0
9 -39 0
-5 -9 39 0
6 -40 0
9 -40 0
-6 -9 40 0
7 -41 0
9 -41 0
-7 -9 41 0
8 -42 0
9 -42 0
-8 -9 42 0
1 -43 0
10 -43 0
-1 -10 43 0
2 -44 0
10 -44 0
-2 -10 44 0
3 -45 0
10 -45 0
-3 -10 45 0
4 -46 0
10 -46 0
-4 -10 46 0
5 -47 0
10 -47 0
-5 -10 47 0
6 -48 0
10 -48 0
-6 -10 48 0
7 -49 0
10 -49 0
-7 -10 49 0
8 -50 0
10 -50 0
-8 -10 50 0
1 -51 0
11 -51 0
-1 -11 51 0
2 -52 0
11 -52 0
-2 -11 52 0
3 -53 0
11 -53 0
-3 -11 53 0
4 -54 0
11 -54 0
-4 -11 54 0
5 -55 0
11 -55 0
-5 -11 55 0
6 -56 0
11 -56 0
-6 -11 56 0
7 -57 0
11 -57 0
-7 -11 57 0
8 -58 0
11 -58 0
-8 -11 58 0
1 -59 0
12 -59 0
-1 -12 59 0
2 -60 0
12 -60 0
-2 -12 60 0
3 -61 0
12 -61 0
-3 -12 61 0
4 -62 0
12 -62 0
-4 -12 62 0
5 -63 0
12 -63 0
-5 -12 63 0
6 -64 0
12 -64 0
-6 -12 64 0
7 -65 0
12 -65 0
-7 -12 65 0
8 -66 0
12 -66 0
-8 -12 66 0
1 -67 0
13 -67 0
-1 -13 67 0
2 -68 0
13 -68 0
-2 -13 68 0
3 -69 0
13 -69 0
-3 -13 69 0
4 -70 0
13 -70 0
-4 -13 70 0
5 -71 0
13 -71 0
-5 -13 71 0
6 -72 0
13 -72 0
-6 -13 72 0
7 -73 0
13 -73 0
-7 -13 73 0
8 -74 0
13 -74 0
-8 -13 74 0
1 -75 0
14 -75 0
-1 -14 75 0
2 -76 0
14 -76 0
-2 -14 76 0
3 -77 0
14 -77 0
-3 -14 77 0
4 -78 0
14 -78 0
-4 -14 78 0
5 -79 0
14 -79 0
-5 -14 79 0
6 -80 0
14 -80 0
-6 -14 80 0
7 -81 0
14 -81 0
-7 -14 81 0
8 -82 0
14 -82 0
-8 -14 82 0
1 -83 0
15 -83 0
-1 -15 83 0
2 -84 0
15 -84 0
-2 -15 84 0
3 -85 0
15 -85 0
-3 -15 85 0
4 -86 0
15 -86 0
-4 -15 86 0
5 -87 0
15 -87 0
-5 -15 87 0
6 -88 0
15 -88 0
-6 -15 88 0
7 -89 0
15 -89 0
-7 -15 89 0
8 -90 0
15 -90 0
-8 -15 90 0
1 -91 0
16 -91 0
-1 -16 91 0
2 -92 0
16 -92 0
-2 -16 92 0
3 -93 0
16 -93 0
-3 -16 93 0
4 -94 0
16 -94 0
-4 -16 94 0
5 -95 0
16 -95 0
-5 -16 95 0
6 -96 0
16 -96 0
-6 -16 96 0
7 -97 0
16 -97 0
-7 -16 97 0
8 -98 0
16 -98 0
-8 -16 98 0
35 -17 0
-35 17 0
36 43 -18 0
-36 43 18 0
36 -43 18 0
-36 -43 -18 0
36 -106 0
43 -106 0
-36 -43 106 0
37 44 -99 0
-37 44 99 0
37 -44 99 0
-37 -44 -99 0
37 -107 0
44 -107 0
-37 -44 107 0
38 45 -100 0
-38 45 100 0
38 -45 100 0
-38 -45 -100 0
38 -108 0
45 -108 0
-38 -45 108 0
39 46 -101 0
-39 46 101 0
39 -46 101 0
-39 -46 -101 0
39 -109 0
46 -109 0
-39 -46 109 0
40 47 -102 0
-40 47 102 0
40 -47 102 0
-40 -47 -102 0
40 -110 0
47 -110 0
-40 -47 110 0
41 48 -103 0
-41 48 103 0
41 -48 103 0
-41 -48 -103 0
41 -111 0
48 -111 0
-41 -48 111 0
42 49 -104 0
-42 49 104 0
42 -49 104 0
-42 -49 -104 0
42 -112 0
49 -112 0
-42 -49 112 0
33 50 -105 0
-33 50 105 0
33 -50 105 0
-33 -50 -105 0
33 -113 0
50 -113 0
-33 -50 113 0
58 113 -120 0
-58 113 120 0
58 -113 120 0
-58 -113 -120 0
58 -149 0
113 -149 0
-58 -113 149 0
66 149 -156 0
-66 149 156 0
66 -149 156 0
-66 -149 -156 0
66 -185 0
149 -185 0
-66 -149 185 0
74 185 -192 0
-74 185 192 0
74 -185 192 0
-74 -185 -192 0
74 -221 0
185 -221 0
-74 -185 221 0
82 221 -228 0
-82 221 228 0
82 -221 228 0
-82 -221 -228 0
82 -257 0
221 -257 0
-82 -221 257 0
90 257 -264 0
-90 257 264 0
90 -257 264 0
-90 -257 -264 0
90 -293 0
257 -293 0
-90 -257 293 0
98 293 -300 0
-98 293 300 0
98 -293 300 0
-98 -293 -300 0
98 -329 0
293 -329 0
-98 -293 329 0
301 294 -25 0
-301 294 25 0
301 -294 25 0
-301 -294 -25 0
301 -330 0
294 -330 0
-301 -294 330 0
329 351 -32 0
-329 351 32 0
329 -351 32 0
-329 -351 -32 0
329 -355 0
351 -355 0
-329 -351 355 0
51 99 -122 0
-51 99 122 0
51 -99 122 0
-51 -99 -122 0
122 106 -19 0
-122 106 19 0
122 -106 19 0
-122 -106 -19 0
106 -123 0
122 -123 0
-106 -122 123 0
99 -124 0
51 -124 0
-99 -51 124 0
-123 121 0
-124 121 0
123 124 -121 0
52 100 -126 0
-52 100 126 0
52 -100 126 0
-52 -100 -126 0
126 107 -114 0
-126 107 114 0
126 -107 114 0
-126 -107 -114 0
107 -127 0
126 -127 0
-107 -126 127 0
100 -128 0
52 -128 0
-100 -52 128 0
-127 125 0
-128 125 0
127 128 -125 0
53 101 -130 0
-53 101 130 0
53 -101 130 0
-53 -101 -130 0
130 108 -115 0
-130 108 115 0
130 -108 115 0
-130 -108 -115 0
108 -131 0
130 -131 0
-108 -130 131 0
101 -132 0
53 -132 0
-101 -53 132 0
-131 129 0
-132 129 0
131 132 -129 0
54 102 -134 0
-54 102 134 0
54 -102 134 0
-54 -102 -134 0
134 109 -116 0
-134 109 116 0
134 -109 116 0
-134 -109 -116 0
109 -135 0
134 -135 0
-109 -134 135 0
102 -136 0
54 -136 0
-102 -54 136 0
-135 133 0
-136 133 0
135 136 -133 0
55 103 -138 0
-55 103 138 0
55 -103 138 0
-55 -103 -138 0
138 110 -117 0
-138 110 117 0
138 -110 117 0
-138 -110 -117 0
110 -139 0
138 -139 0
-110 -138 139 0
103 -140 0
55 -140 0
-103 -55 140 0
-139 137 0
-140 137 0
139 140 -137 0
56 104 -142 0
-56 104 142 0
56 -104 142 0
-56 -104 -142 0
142 111 -118 0
-142 111 118 0
142 -111 118 0
-142 -111 -118 0
111 -143 0
142 -143 0
-111 -142 143 0
104 -144 0
56 -144 0
-104 -56 144 0
-143 141 0
-144 141 0
143 144 -141 0
57 105 -146 0
-57 105 146 0
57 -105 146 0
-57 -105 -146 0
146 112 -119 0
-146 112 119 0
146 -112 119 0
-146 -112 -119 0
112 -147 0
146 -147 0
-112 -146 147 0
105 -148 0
57 -148 0
-105 -57 148 0
-147 145 0
-148 145 0
147 148 -145 0
59 114 -158 0
-59 114 158 0
59 -114 158 0
-59 -114 -158 0
158 121 -20 0
-158 121 20 0
158 -121 20 0
-158 -121 -20 0
121 -159 0
158 -159 0
-121 -158 159 0
114 -160 0
59 -160 0
-114 -59 160 0
-159 157 0
-160 157 0
159 160 -157 0
60 115 -162 0
-60 115 162 0
60 -115 162 0
-60 -115 -162 0
162 125 -150 0
-162 125 150 0
162 -125 150 0
-162 -125 -150 0
125 -163 0
162 -163 0
-125 -162 163 0
115 -164 0
60 -164 0
-115 -60 164 0
-163 161 0
-164 161 0
163 164 -161 0
61 116 -166 0
-61 116 166 0
61 -116 166 0
-61 -116 -166 0
166 129 -151 0
-166 129 151 0
166 -129 151 0
-166 -129 -151 0
129 -167 0
166 -167 0
-129 -166 167 0
116 -168 0
61 -168 0
-116 -61 168 0
-167 165 0
-168 165 0
167 168 -165 0
62 117 -170 0
-62 117 170 0
62 -117 170 0
-62 -117 -170 0
170 133 -152 0
-170 133 152 0
170 -133 152 0
-170 -133 -152 0
133 -171 0
170 -171 0
-133 -170 171 0
117 -172 0
62 -172 0
-117 -62 172 0
-171 169 0
-172 169 0
171 172 -169 0
63 118 -174 0
-63 118 174 0
63 -118 174 0
-63 -118 -174 0
174 137 -153 0
-174 137 153 0
174 -137 153 0
-174 -137 -153 0
137 -175 0
174 -175 0
-137 -174 175 0
118 -176 0
63 -176 0
-118 -63 176 0
-175 173 0
-176 173 0
175 176 -173 0
64 119 -178 0
-64 119 178 0
64 -119 178 0
-64 -119 -178 0
178 141 -154 0
-178 141 154 0
178 -141 154 0
-178 -141 -154 0
141 -179 0
178 -179 0
-141 -178 179 0
119 -180 0
64 -180 0
-119 -64 180 0
-179 177 0
-180 177 0
179 180 -177 0
65 120 -182 0
-65 120 182 0
65 -120 182 0
-65 -120 -182 0
182 145 -155 0
-182 145 155 0
182 -145 155 0
-182 -145 -155 0
145 -183 0
182 -183 0
-145 -182 183 0
120 -184 0
65 -184 0
-120 -65 184 0
-183 181 0
-184 181 0
183 184 -181 0
67 150 -194 0
-67 150 194 0
67 -150 194 0
-67 -150 -194 0
194 157 -21 0
-194 157 21 0
194 -157 21 0
-194 -157 -21 0
157 -195 0
194 -195 0
-157 -194 195 0
150 -196 0
67 -196 0
-150 -67 196 0
-195 193 0
-196 193 0
195 196 -193 0
68 151 -198 0
-68 151 198 0
68 -151 198 0
-68 -151 -198 0
198 161 -186 0
-198 161 186 0
198 -161 186 0
-198 -161 -186 0
161 -199 0
198 -199 0
-161 -198 199 0
151 -200 0
68 -200 0
-151 -68 200 0
-199 197 0
-200 197 0
199 200 -197 0
69 152 -202 0
-69 152 202 0
69 -152 202 0
-69 -152 -202 0
202 165 -187 0
-202 165 187 0
202 -165 187 0
-202 -165 -187 0
165 -203 0
202 -203 0
-165 -202 203 0
152 -204 0
69 -204 0
-152 -69 204 0
-203 201 0
-204 201 0
203 204 -201 0
70 153 -206 0
-70 153 206 0
70 -153 206 0
-70 -153 -206 0
206 169 -188 0
-206 169 188 0
206 -169 188 0
-206 -169 -188 0
169 -207 0
206 -207 0
-169 -206 207 0
153 -208 0
70 -208 0
-153 -70 208 0
-207 205 0
-208 205 0
207 208 -205 0
71 154 -210 0
-71 154 210 0
71 -154 210 0
-71 -154 -210 0
210 173 -189 0
-210 173 189 0
210 -173 189 0
-210 -173 -189 0
173 -211 0
210 -211 0
-173 -210 211 0
154 -212 0
71 -212 0
-154 -71 212 0
-211 209 0
-212 209 0
211 212 -209 0
72 155 -214 0
-72 155 214 0
72 -155 214 0
-72 -155 -214 0
214 177 -190 0
-214 177 190 0
214 -177 190 0
-214 -177 -190 0
177 -215 0
214 -215 0
-177 -214 215 0
155 -216 0
72 -216 0
-155 -72 216 0
-215 213 0
-216 213 0
215 216 -213 0
73 156 -218 0
-73 156 218 0
73 -156 218 0
-73 -156 -218 0
218 181 -191 0
-218 181 191 0
218 -181 191 0
-218 -181 -191 0
181 -219 0
218 -219 0
-181 -218 219 0
156 -220 0
73 -220 0
-156 -73 220 0
-219 217 0
-220 217 0
219 220 -217 0
75 186 -230 0
-75 186 230 0
75 -186 230 0
-75 -186 -230 0
230 193 -22 0
-230 193 22 0
230 -193 22 0
-230 -193 -22 0
193 -231 0
230 -231 0
-193 -230 231 0
186 -232 0
75 -232 0
-186 -75 232 0
-231 229 0
-232 229 0
231 232 -229 0
76 187 -234 0
-76 187 234 0
76 -187 234 0
-76 -187 -234 0
234 197 -222 0
-234 197 222 0
234 -197 222 0
-234 -197 -222 0
197 -235 0
234 -235 0
-197 -234 235 0
187 -236 0
76 -236 0
-187 -76 236 0
-235 233 0
-236 233 0
235 236 -233 0
77 188 -238 0
-77 188 238 0
77 -188 238 0
-77 -188 -238 0
238 201 -223 0
-238 201 223 0
238 -201 223 0
-238 -201 -223 0
201 -239 0
238 -239 0
-201 -238 239 0
188 -240 0
77 -240 0
-188 -77 240 0
-239 237 0
-240 237 0
239 240 -237 0
78 189 -242 0
-78 189 242 0
78 -189 242 0
-78 -189 -242 0
242 205 -224 0
-242 205 224 0
242 -205 224 0
-242 -205 -224 0
205 -243 0
242 -243 0
-205 -242 243 0
189 -244 0
78 -244 0
-189 -78 244 0
-243 241 0
-244 241 0
243 244 -241 0
79 190 -246 0
-79 190 246 0
79 -190 246 0
-79 -190 -246 0
246 209 -225 0
-246 209 225 0
246 -209 225 0
-246 -209 -225 0
209 -247 0
246 -247 0
-209 -246 247 0
190 -248 0
79 -248 0
-190 -79 248 0
-247 245 0
-248 245 0
247 248 -245 0
80 191 -250 0
-80 191 250 0
80 -191 250 0
-80 -191 -250 0
250 213 -226 0
-250 213 226 0
250 -213 226 0
-250 -213 -226 0
213 -251 0
250 -251 0
-213 -250 251 0
191 -252 0
80 -252 0
-191 -80 252 0
-251 249 0
-252 249 0
251 252 -249 0
81 192 -254 0
-81 192 254 0
81 -192 254 0
-81 -192 -254 0
254 217 -227 0
-254 217 227 0
254 -217 227 0
-254 -217 -227 0
217 -255 0
254 -255 0
-217 -254 255 0
192 -256 0
81 -256 0
-192 -81 256 0
-255 253 0
-256 253 0
255 256 -253 0
83 222 -266 0
-83 222 266 0
83 -222 266 0
-83 -222 -266 0
266 229 -23 0
-266 229 23 0
266 -229 23 0
-266 -229 -23 0
229 -267 0
266 -267 0
-229 -266 267 0
222 -268 0
83 -268 0
-222 -83 268 0
-267 265 0
-268 265 0
267 268 -265 0
84 223 -270 0
-84 223 270 0
84 -223 270 0
-84 -223 -270 0
270 233 -258 0
-270 233 258 0
270 -233 258 0
-270 -233 -258 0
233 -271 0
270 -271 0
-233 -270 271 0
223 -272 0
84 -272 0
-223 -84 272 0
-271 269 0
-272 269 0
271 272 -269 0
85 224 -274 0
-85 224 274 0
85 -224 274 0
-85 -224 -274 0
274 237 -259 0
-274 237 259 0
274 -237 259 0
-274 -237 -259 0
237 -275 0
274 -275 0
-237 -274 275 0
224 -276 0
85 -276 0
-224 -85 276 0
-275 273 0
-276 273 0
275 276 -273 0
86 225 -278 0
-86 225 278 0
86 -225 278 0
-86 -225 -278 0
278 241 -260 0
-278 241 260 0
278 -241 260 0
-278 -241 -260 0
241 -279 0
278 -279 0
-241 -278 279 0
225 -280 0
86 -280 0
-225 -86 280 0
-279 277 0
-280 277 0
279 280 -277 0
87 226 -282 0
-87 226 282 0
87 -226 282 0
-87 -226 -282 0
282 245 -261 0
-282 245 261 0
282 -245 261 0
-282 -245 -261 0
245 -283 0
282 -283 0
-245 -282 283 0
226 -284 0
87 -284 0
-226 -87 284 0
-283 281 0
-284 281 0
283 284 -281 0
88 227 -286 0
-88 227 286 0
88 -227 286 0
-88 -227 -286 0
286 249 -262 0
-286 249 262 0
286 -249 262 0
-286 -249 -262 0
249 -287 0
286 -287 0
-249 -286 287 0
227 -288 0
88 -288 0
-227 -88 288 0
-287 285 0
-288 285 0
287 288 -285 0
89 228 -290 0
-89 228 290 0
89 -228 290 0
-89 -228 -290 0
290 253 -263 0
-290 253 263 0
290 -253 263 0
-290 -253 -263 0
253 -291 0
290 -291 0
-253 -290 291 0
228 -292 0
89 -292 0
-228 -89 292 0
-291 289 0
-292 289 0
291 292 -289 0
91 258 -302 0
-91 258 302 0
91 -258 302 0
-91 -258 -302 0
302 265 -24 0
-302 265 24 0
302 -265 24 0
-302 -265 -24 0
265 -303 0
302 -303 0
-265 -302 303 0
258 -304 0
91 -304 0
-258 -91 304 0
-303 301 0
-304 301 0
303 304 -301 0
92 259 -306 0
-92 259 306 0
92 -259 306 0
-92 -259 -306 0
306 269 -294 0
-306 269 294 0
306 -269 294 0
-306 -269 -294 0
269 -307 0
306 -307 0
-269 -306 307 0
259 -308 0
92 -308 0
-259 -92 308 0
-307 305 0
-308 305 0
307 308 -305 0
93 260 -310 0
-93 260 310 0
93 -260 310 0
-93 -260 -310 0
310 273 -295 0
-310 273 295 0
310 -273 295 0
-310 -273 -295 0
273 -311 0
310 -311 0
-273 -310 311 0
260 -312 0
93 -312 0
-260 -93 312 0
-311 309 0
-312 309 0
311 312 -309 0
94 261 -314 0
-94 261 314 0
94 -261 314 0
-94 -261 -314 0
314 277 -296 0
-314 277 296 0
314 -277 296 0
-314 -277 -296 0
277 -315 0
314 -315 0
-277 -314 315 0
261 -316 0
94 -316 0
-261 -94 316 0
-315 313 0
-316 313 0
315 316 -313 0
95 262 -318 0
-95 262 318 0
95 -262 318 0
-95 -262 -318 0
318 281 -297 0
-318 281 297 0
318 -281 297 0
-318 -281 -297 0
281 -319 0
318 -319 0
-281 -318 319 0
262 -320 0
95 -320 0
-262 -95 320 0
-319 317 0
-320 317 0
319 320 -317 0
96 263 -322 0
-96 263 322 0
96 -263 322 0
-96 -263 -322 0
322 285 -298 0
-322 285 298 0
322 -285 298 0
-322 -285 -298 0
285 -323 0
322 -323 0
-285 -322 323 0
263 -324 0
96 -324 0
-263 -96 324 0
-323 321 0
-324 321 0
323 324 -321 0
97 264 -326 0
-97 264 326 0
97 -264 326 0
-97 -264 -326 0
326 289 -299 0
-326 289 299 0
326 -289 299 0
-326 -289 -299 0
289 -327 0
326 -327 0
-289 -326 327 0
264 -328 0
97 -328 0
-264 -97 328 0
-327 325 0
-328 325 0
327 328 -325 0
305 295 -332 0
-305 295 332 0
305 -295 332 0
-305 -295 -332 0
332 330 -26 0
-332 330 26 0
332 -330 26 0
-332 -330 -26 0
330 -333 0
332 -333 0
-330 -332 333 0
295 -334 0
305 -334 0
-295 -305 334 0
-333 331 0
-334 331 0
333 334 -331 0
309 296 -336 0
-309 296 336 0
309 -296 336 0
-309 -296 -336 0
336 331 -27 0
-336 331 27 0
336 -331 27 0
-336 -331 -27 0
331 -337 0
336 -337 0
-331 -336 337 0
296 -338 0
309 -338 0
-296 -309 338 0
-337 335 0
-338 335 0
337 338 -335 0
313 297 -340 0
-313 297 340 0
313 -297 340 0
-313 -297 -340 0
340 335 -28 0
-340 335 28 0
340 -335 28 0
-340 -335 -28 0
335 -341 0
340 -341 0
-335 -340 341 0
297 -342 0
313 -342 0
-297 -313 342 0
-341 339 0
-342 339 0
341 342 -339 0
317 298 -344 0
-317 298 344 0
317 -298 344 0
-317 -298 -344 0
344 339 -29 0
-344 339 29 0
344 -339 29 0
-344 -339 -29 0
339 -345 0
344 -345 0
-339 -344 345 0
298 -346 0
317 -346 0
-298 -317 346 0
-345 343 0
-346 343 0
345 346 -343 0
321 299 -348 0
-321 299 348 0
321 -299 348 0
-321 -299 -348 0
348 343 -30 0
-348 343 30 0
348 -343 30 0
-348 -343 -30 0
343 -349 0
348 -349 0
-343 -348 349 0
299 -350 0
321 -350 0
-299 -321 350 0
-349 347 0
-350 347 0
349 350 -347 0
325 300 -352 0
-325 300 352 0
325 -300 352 0
-325 -300 -352 0
352 347 -31 0
-352 347 31 0
352 -347 31 0
-352 -347 -31 0
347 -353 0
352 -353 0
-347 -352 353 0
300 -354 0
325 -354 0
-300 -325 354 0
-353 351 0
-354 351 0
353 354 -351 0
